\Problem : SOD_BK : Shared Backup Network Provision for VNE (Guo2012)
Minimize
obj :  + 0.01427551748750892 Zs#11 + 0.01427551748750892 Zs#12 + 0.01436988072998994 Zs#13 + 0.01436988072998994 Zs#14 + 0.011585203378245304 Zs#15 + 0.011585203378245304 Zs#16 + 0.01737136504186499 Zs#17 + 0.01737136504186499 Zs#18 + 0.011151628695370959 Xvl#68sp#22#19 + 0.011151628695370959 Zs#19 + 0.011151628695370959 Xvl#69sp#20#21 + 0.011151628695370959 Zs#20 + 0.019725422124033457 Xvl#67sp#21 + 0.019725422124033457 Xvl#69sp#20#21 + 0.019725422124033457 Zs#21 + 0.019725422124033457 Xvl#66sp#22 + 0.019725422124033457 Xvl#68sp#22#19 + 0.019725422124033457 Zs#22 + 0.016603297414866592 Xvl#67sp#23#46 + 0.016603297414866592 Zs#23 + 0.016603297414866592 Xvl#66sp#45#24 + 0.016603297414866592 Zs#24 + 0.013656911079851959 Xvl#67sp#25#57#48 + 0.013656911079851959 Zs#25 + 0.013656911079851959 Xvl#66sp#47#58#26 + 0.013656911079851959 Zs#26 + 0.016527832870554014 Zs#27 + 0.016527832870554014 Zs#28 + 0.011572868566931684 Xvl#69sp#29#39 + 0.011572868566931684 Zs#29 + 0.011572868566931684 Xvl#68sp#40#30 + 0.011572868566931684 Zs#30 + 0.011496763661029419 Xvl#69sp#31#46 + 0.011496763661029419 Zs#31 + 0.011496763661029419 Xvl#68sp#45#32 + 0.011496763661029419 Zs#32 + 0.017821499857428 Zs#33 + 0.017821499857428 Zs#34 + 0.013880213755291831 Zs#35 + 0.013880213755291831 Zs#36 + 0.012943810916810126 Zs#37 + 0.012943810916810126 Zs#38 + 0.013416695736174093 Xvl#69sp#29#39 + 0.013416695736174093 Zs#39 + 0.013416695736174093 Xvl#68sp#40#30 + 0.013416695736174093 Zs#40 + 0.01556202244043636 Zs#41 + 0.01556202244043636 Zs#42 + 0.012447564633979362 Zs#43 + 0.012447564633979362 Zs#44 + 0.018192071895068128 Xvl#66sp#45#24 + 0.018192071895068128 Xvl#68sp#45#32 + 0.018192071895068128 Zs#45 + 0.018192071895068128 Xvl#67sp#23#46 + 0.018192071895068128 Xvl#69sp#31#46 + 0.018192071895068128 Zs#46 + 0.011361570623522995 Xvl#66sp#47#58#26 + 0.011361570623522995 Zs#47 + 0.011361570623522995 Xvl#67sp#25#57#48 + 0.011361570623522995 Zs#48 + 0.010244747005972688 Zs#49 + 0.010244747005972688 Zs#50 + 0.013710650433256552 Zs#51 + 0.013710650433256552 Zs#52 + 0.014771048744460856 Zs#53 + 0.014771048744460856 Zs#54 + 0.01650927821435647 Zs#55 + 0.01650927821435647 Zs#56 + 0.010598834128245893 Xvl#67sp#25#57#48 + 0.010598834128245893 Zs#57 + 0.010598834128245893 Xvl#66sp#47#58#26 + 0.010598834128245893 Zs#58 + 0.015061828807253777 Zs#59 + 0.015061828807253777 Zs#60 + 0.014122698000225961 Zs#61 + 0.014122698000225961 Zs#62
Subject To
 + Zs#11 <= 70.04
 + Zs#12 <= 70.04
 + Zs#13 <= 69.58
 + Zs#14 <= 69.58
 + Zs#15 <= 86.307
 + Zs#16 <= 86.307
 + Zs#17 <= 57.556
 + Zs#18 <= 57.556
 + Xvl#68sp#22#19 + Zs#19 <= 89.663
 + Xvl#69sp#20#21 + Zs#20 <= 89.663
 + Xvl#67sp#21 + Xvl#69sp#20#21 + Zs#21 <= 50.686
 + Xvl#66sp#22 + Xvl#68sp#22#19 + Zs#22 <= 50.686
 + Xvl#67sp#23#46 + Zs#23 <= 60.219
 + Xvl#66sp#45#24 + Zs#24 <= 60.219
 + Xvl#67sp#25#57#48 + Zs#25 <= 73.213
 + Xvl#66sp#47#58#26 + Zs#26 <= 73.213
 + Zs#27 <= 60.494
 + Zs#28 <= 60.494
 + Xvl#69sp#29#39 + Zs#29 <= 86.399
 + Xvl#68sp#40#30 + Zs#30 <= 86.399
 + Xvl#69sp#31#46 + Zs#31 <= 86.971
 + Xvl#68sp#45#32 + Zs#32 <= 86.971
 + Zs#33 <= 56.102
 + Zs#34 <= 56.102
 + Zs#35 <= 72.035
 + Zs#36 <= 72.035
 + Zs#37 <= 77.247
 + Zs#38 <= 77.247
 + Xvl#69sp#29#39 + Zs#39 <= 74.524
 + Xvl#68sp#40#30 + Zs#40 <= 74.524
 + Zs#41 <= 64.249
 + Zs#42 <= 64.249
 + Zs#43 <= 80.327
 + Zs#44 <= 80.327
 + Xvl#66sp#45#24 + Xvl#68sp#45#32 + Zs#45 <= 54.959
 + Xvl#67sp#23#46 + Xvl#69sp#31#46 + Zs#46 <= 54.959
 + Xvl#66sp#47#58#26 + Zs#47 <= 88.006
 + Xvl#67sp#25#57#48 + Zs#48 <= 88.006
 + Zs#49 <= 97.601
 + Zs#50 <= 97.601
 + Zs#51 <= 72.926
 + Zs#52 <= 72.926
 + Zs#53 <= 67.69
 + Zs#54 <= 67.69
 + Zs#55 <= 60.562
 + Zs#56 <= 60.562
 + Xvl#67sp#25#57#48 + Zs#57 <= 94.34
 + Xvl#66sp#47#58#26 + Zs#58 <= 94.34
 + Zs#59 <= 66.383
 + Zs#60 <= 66.383
 + Zs#61 <= 70.798
 + Zs#62 <= 70.798
 + Xvl#66sp#22 + Xvl#66sp#45#24 + Xvl#66sp#47#58#26 = 3.5439502035459034
 + Xvl#67sp#21 + Xvl#67sp#23#46 + Xvl#67sp#25#57#48 = 3.5439502035459034
 + Xvl#68sp#40#30 + Xvl#68sp#45#32 + Xvl#68sp#22#19 = 24.948512813497082
 + Xvl#69sp#29#39 + Xvl#69sp#31#46 + Xvl#69sp#20#21 = 24.948512813497082
 + yf#11r#13#20 + yf#11r#15#37#26 + yf#11r#15#28#20 = 0
 + yf#12r#19#14 + yf#12r#25#38#16 + yf#12r#19#27#16 = 0
 + yf#13r#11#19 + yf#13r#15#28 + yf#13r#15#33#30 = 0
 + yf#14r#20#12 + yf#14r#27#16 + yf#14r#29#34#16 = 0
 + yf#15r#13#27 + yf#15r#17#36 + yf#15r#11#25#38 = 0
 + yf#16r#28#14 + yf#16r#35#18 + yf#16r#37#26#12 = 0
 + yf#17r#15#35 + yf#17r#15#37#54 + yf#17r#13#29#41 = 0
 + yf#18r#36#16 + yf#18r#53#38#16 + yf#18r#42#30#14 = 0
 + yf#19r#23#32 + yf#19r#12#13 + yf#19r#12#15#28 - Xvl#68sp#22#19 = 0
 + yf#20r#31#24 + yf#20r#14#11 + yf#20r#27#16#11 - Xvl#69sp#20#21 = 0
 + yf#21r#23#46 + yf#21r#25#57#48 + yf#21r#19#29#39 - Xvl#67sp#21 - Xvl#69sp#20#21 = 0
 + yf#22r#45#24 + yf#22r#47#58#26 + yf#22r#40#30#20 - Xvl#66sp#22 - Xvl#68sp#22#19 = 0
 + yf#23r#19#31 + yf#23r#21#45 + yf#23r#12#13#31 - Xvl#67sp#23#46 = 0
 + yf#24r#32#20 + yf#24r#46#22 + yf#24r#32#14#11 - Xvl#66sp#45#24 = 0
 + yf#25r#12#15#37 + yf#25r#19#27#37 + yf#25r#21#47#58 - Xvl#67sp#25#57#48 = 0
 + yf#26r#38#16#11 + yf#26r#38#28#20 + yf#26r#57#48#22 - Xvl#66sp#47#58#26 = 0
 + yf#27r#14#15 + yf#27r#29#34 + yf#27r#20#12#15 = 0
 + yf#28r#16#13 + yf#28r#33#30 + yf#28r#16#11#19 = 0
 + yf#29r#27#33 + yf#29r#31#46#40 + yf#29r#14#15#33 - Xvl#69sp#29#39 = 0
 + yf#30r#34#28 + yf#30r#39#45#32 + yf#30r#34#16#13 - Xvl#68sp#40#30 = 0
 + yf#31r#20#23 + yf#31r#29#39#45 + yf#31r#14#11#23 - Xvl#69sp#31#46 = 0
 + yf#32r#24#19 + yf#32r#46#40#30 + yf#32r#24#12#13 - Xvl#68sp#45#32 = 0
 + yf#33r#28#29 + yf#33r#35#42 + yf#33r#37#57#44 = 0
 + yf#34r#30#27 + yf#34r#41#36 + yf#34r#43#58#38 = 0
 + yf#35r#37#54 + yf#35r#16#17 + yf#35r#33#41 = 0
 + yf#36r#53#38 + yf#36r#18#15 + yf#36r#42#34 = 0
 + yf#37r#35#53 + yf#37r#16#11#25 + yf#37r#33#43#58 = 0
 + yf#38r#54#36 + yf#38r#26#12#15 + yf#38r#57#44#34 = 0
 + yf#39r#43#48 + yf#39r#43#61#50 + yf#39r#30#31#46 - Xvl#69sp#29#39 = 0
 + yf#40r#47#44 + yf#40r#49#62#44 + yf#40r#45#32#29 - Xvl#68sp#40#30 = 0
 + yf#41r#43#56 + yf#41r#34#35 + yf#41r#43#58#54 = 0
 + yf#42r#55#44 + yf#42r#36#33 + yf#42r#53#57#44 = 0
 + yf#43r#39#47 + yf#43r#41#55 + yf#43r#39#49#62 = 0
 + yf#44r#48#40 + yf#44r#56#42 + yf#44r#61#50#40 = 0
 + yf#45r#49#52 + yf#45r#22#23 + yf#45r#40#30#31 - Xvl#66sp#45#24 - Xvl#68sp#45#32 = 0
 + yf#46r#51#50 + yf#46r#24#21 + yf#46r#32#29#39 - Xvl#67sp#23#46 - Xvl#69sp#31#46 = 0
 + yf#47r#49#62 + yf#47r#40#43 + yf#47r#49#60#57 - Xvl#66sp#47#58#26 = 0
 + yf#48r#61#50 + yf#48r#44#39 + yf#48r#58#59#50 - Xvl#67sp#25#57#48 = 0
 + yf#49r#47#61 + yf#49r#45#51 + yf#49r#47#58#59 = 0
 + yf#50r#62#48 + yf#50r#52#46 + yf#50r#60#57#48 = 0
 + yf#51r#46#49 + yf#51r#46#47#61 + yf#51r#24#25#59 = 0
 + yf#52r#50#45 + yf#52r#62#48#45 + yf#52r#60#26#23 = 0
 + yf#53r#36#37 + yf#53r#55#58 + yf#53r#42#43#58 = 0
 + yf#54r#38#35 + yf#54r#57#56 + yf#54r#57#44#41 = 0
 + yf#55r#53#57 + yf#55r#42#43 + yf#55r#36#37#57 = 0
 + yf#56r#58#54 + yf#56r#44#41 + yf#56r#58#38#35 = 0
 + yf#57r#59#62 + yf#57r#54#55 + yf#57r#59#50#47 - Xvl#67sp#25#57#48 = 0
 + yf#58r#61#60 + yf#58r#56#53 + yf#58r#48#49#60 - Xvl#66sp#47#58#26 = 0
 + yf#59r#57#61 + yf#59r#57#48#49 + yf#59r#26#21#49 = 0
 + yf#60r#62#58 + yf#60r#50#47#58 + yf#60r#50#22#25 = 0
 + yf#61r#48#49 + yf#61r#58#59 + yf#61r#44#39#49 = 0
 + yf#62r#50#47 + yf#62r#60#57 + yf#62r#50#40#43 = 0
 + yf#11r#13#20 - Zs#13 <= 0.0
 + yf#11r#15#37#26 + yf#11r#15#28#20 - Zs#15 <= 0.0
 + yf#11r#13#20 + yf#11r#15#28#20 - Zs#20 <= 0.0
 + yf#11r#15#37#26 - Zs#26 <= 0.0
 + yf#11r#15#28#20 - Zs#28 <= 0.0
 + yf#11r#15#37#26 - Zs#37 <= 0.0
 + yf#12r#19#14 - Zs#14 <= 0.0
 + yf#12r#25#38#16 + yf#12r#19#27#16 - Zs#16 <= 0.0
 + yf#12r#19#14 + yf#12r#19#27#16 - Zs#19 <= 0.0
 + yf#12r#25#38#16 - Zs#25 <= 0.0
 + yf#12r#19#27#16 - Zs#27 <= 0.0
 + yf#12r#25#38#16 - Zs#38 <= 0.0
 + yf#13r#11#19 - Zs#11 <= 0.0
 + yf#13r#15#28 + yf#13r#15#33#30 - Zs#15 <= 0.0
 + yf#13r#11#19 - Zs#19 <= 0.0
 + yf#13r#15#28 - Zs#28 <= 0.0
 + yf#13r#15#33#30 - Zs#30 <= 0.0
 + yf#13r#15#33#30 - Zs#33 <= 0.0
 + yf#14r#20#12 - Zs#12 <= 0.0
 + yf#14r#27#16 + yf#14r#29#34#16 - Zs#16 <= 0.0
 + yf#14r#20#12 - Zs#20 <= 0.0
 + yf#14r#27#16 - Zs#27 <= 0.0
 + yf#14r#29#34#16 - Zs#29 <= 0.0
 + yf#14r#29#34#16 - Zs#34 <= 0.0
 + yf#15r#11#25#38 - Zs#11 <= 0.0
 + yf#15r#13#27 - Zs#13 <= 0.0
 + yf#15r#17#36 - Zs#17 <= 0.0
 + yf#15r#11#25#38 - Zs#25 <= 0.0
 + yf#15r#13#27 - Zs#27 <= 0.0
 + yf#15r#17#36 - Zs#36 <= 0.0
 + yf#15r#11#25#38 - Zs#38 <= 0.0
 + yf#16r#37#26#12 - Zs#12 <= 0.0
 + yf#16r#28#14 - Zs#14 <= 0.0
 + yf#16r#35#18 - Zs#18 <= 0.0
 + yf#16r#37#26#12 - Zs#26 <= 0.0
 + yf#16r#28#14 - Zs#28 <= 0.0
 + yf#16r#35#18 - Zs#35 <= 0.0
 + yf#16r#37#26#12 - Zs#37 <= 0.0
 + yf#17r#13#29#41 - Zs#13 <= 0.0
 + yf#17r#15#35 + yf#17r#15#37#54 - Zs#15 <= 0.0
 + yf#17r#13#29#41 - Zs#29 <= 0.0
 + yf#17r#15#35 - Zs#35 <= 0.0
 + yf#17r#15#37#54 - Zs#37 <= 0.0
 + yf#17r#13#29#41 - Zs#41 <= 0.0
 + yf#17r#15#37#54 - Zs#54 <= 0.0
 + yf#18r#42#30#14 - Zs#14 <= 0.0
 + yf#18r#36#16 + yf#18r#53#38#16 - Zs#16 <= 0.0
 + yf#18r#42#30#14 - Zs#30 <= 0.0
 + yf#18r#36#16 - Zs#36 <= 0.0
 + yf#18r#53#38#16 - Zs#38 <= 0.0
 + yf#18r#42#30#14 - Zs#42 <= 0.0
 + yf#18r#53#38#16 - Zs#53 <= 0.0
 + yf#19r#12#13 + yf#19r#12#15#28 - Zs#12 <= 0.0
 + yf#19r#12#13 - Zs#13 <= 0.0
 + yf#19r#12#15#28 - Zs#15 <= 0.0
 + yf#19r#23#32 - Zs#23 <= 0.0
 + yf#19r#12#15#28 - Zs#28 <= 0.0
 + yf#19r#23#32 - Zs#32 <= 0.0
 + yf#20r#14#11 + yf#20r#27#16#11 - Zs#11 <= 0.0
 + yf#20r#14#11 - Zs#14 <= 0.0
 + yf#20r#27#16#11 - Zs#16 <= 0.0
 + yf#20r#31#24 - Zs#24 <= 0.0
 + yf#20r#27#16#11 - Zs#27 <= 0.0
 + yf#20r#31#24 - Zs#31 <= 0.0
 + yf#21r#19#29#39 - Zs#19 <= 0.0
 + yf#21r#23#46 - Zs#23 <= 0.0
 + yf#21r#25#57#48 - Zs#25 <= 0.0
 + yf#21r#19#29#39 - Zs#29 <= 0.0
 + yf#21r#19#29#39 - Zs#39 <= 0.0
 + yf#21r#23#46 - Zs#46 <= 0.0
 + yf#21r#25#57#48 - Zs#48 <= 0.0
 + yf#21r#25#57#48 - Zs#57 <= 0.0
 + yf#22r#40#30#20 - Zs#20 <= 0.0
 + yf#22r#45#24 - Zs#24 <= 0.0
 + yf#22r#47#58#26 - Zs#26 <= 0.0
 + yf#22r#40#30#20 - Zs#30 <= 0.0
 + yf#22r#40#30#20 - Zs#40 <= 0.0
 + yf#22r#45#24 - Zs#45 <= 0.0
 + yf#22r#47#58#26 - Zs#47 <= 0.0
 + yf#22r#47#58#26 - Zs#58 <= 0.0
 + yf#23r#12#13#31 - Zs#12 <= 0.0
 + yf#23r#12#13#31 - Zs#13 <= 0.0
 + yf#23r#19#31 - Zs#19 <= 0.0
 + yf#23r#21#45 - Zs#21 <= 0.0
 + yf#23r#19#31 + yf#23r#12#13#31 - Zs#31 <= 0.0
 + yf#23r#21#45 - Zs#45 <= 0.0
 + yf#24r#32#14#11 - Zs#11 <= 0.0
 + yf#24r#32#14#11 - Zs#14 <= 0.0
 + yf#24r#32#20 - Zs#20 <= 0.0
 + yf#24r#46#22 - Zs#22 <= 0.0
 + yf#24r#32#20 + yf#24r#32#14#11 - Zs#32 <= 0.0
 + yf#24r#46#22 - Zs#46 <= 0.0
 + yf#25r#12#15#37 - Zs#12 <= 0.0
 + yf#25r#12#15#37 - Zs#15 <= 0.0
 + yf#25r#19#27#37 - Zs#19 <= 0.0
 + yf#25r#21#47#58 - Zs#21 <= 0.0
 + yf#25r#19#27#37 - Zs#27 <= 0.0
 + yf#25r#12#15#37 + yf#25r#19#27#37 - Zs#37 <= 0.0
 + yf#25r#21#47#58 - Zs#47 <= 0.0
 + yf#25r#21#47#58 - Zs#58 <= 0.0
 + yf#26r#38#16#11 - Zs#11 <= 0.0
 + yf#26r#38#16#11 - Zs#16 <= 0.0
 + yf#26r#38#28#20 - Zs#20 <= 0.0
 + yf#26r#57#48#22 - Zs#22 <= 0.0
 + yf#26r#38#28#20 - Zs#28 <= 0.0
 + yf#26r#38#16#11 + yf#26r#38#28#20 - Zs#38 <= 0.0
 + yf#26r#57#48#22 - Zs#48 <= 0.0
 + yf#26r#57#48#22 - Zs#57 <= 0.0
 + yf#27r#20#12#15 - Zs#12 <= 0.0
 + yf#27r#14#15 - Zs#14 <= 0.0
 + yf#27r#14#15 + yf#27r#20#12#15 - Zs#15 <= 0.0
 + yf#27r#20#12#15 - Zs#20 <= 0.0
 + yf#27r#29#34 - Zs#29 <= 0.0
 + yf#27r#29#34 - Zs#34 <= 0.0
 + yf#28r#16#11#19 - Zs#11 <= 0.0
 + yf#28r#16#13 - Zs#13 <= 0.0
 + yf#28r#16#13 + yf#28r#16#11#19 - Zs#16 <= 0.0
 + yf#28r#16#11#19 - Zs#19 <= 0.0
 + yf#28r#33#30 - Zs#30 <= 0.0
 + yf#28r#33#30 - Zs#33 <= 0.0
 + yf#29r#14#15#33 - Zs#14 <= 0.0
 + yf#29r#14#15#33 - Zs#15 <= 0.0
 + yf#29r#27#33 - Zs#27 <= 0.0
 + yf#29r#31#46#40 - Zs#31 <= 0.0
 + yf#29r#27#33 + yf#29r#14#15#33 - Zs#33 <= 0.0
 + yf#29r#31#46#40 - Zs#40 <= 0.0
 + yf#29r#31#46#40 - Zs#46 <= 0.0
 + yf#30r#34#16#13 - Zs#13 <= 0.0
 + yf#30r#34#16#13 - Zs#16 <= 0.0
 + yf#30r#34#28 - Zs#28 <= 0.0
 + yf#30r#39#45#32 - Zs#32 <= 0.0
 + yf#30r#34#28 + yf#30r#34#16#13 - Zs#34 <= 0.0
 + yf#30r#39#45#32 - Zs#39 <= 0.0
 + yf#30r#39#45#32 - Zs#45 <= 0.0
 + yf#31r#14#11#23 - Zs#11 <= 0.0
 + yf#31r#14#11#23 - Zs#14 <= 0.0
 + yf#31r#20#23 - Zs#20 <= 0.0
 + yf#31r#20#23 + yf#31r#14#11#23 - Zs#23 <= 0.0
 + yf#31r#29#39#45 - Zs#29 <= 0.0
 + yf#31r#29#39#45 - Zs#39 <= 0.0
 + yf#31r#29#39#45 - Zs#45 <= 0.0
 + yf#32r#24#12#13 - Zs#12 <= 0.0
 + yf#32r#24#12#13 - Zs#13 <= 0.0
 + yf#32r#24#19 - Zs#19 <= 0.0
 + yf#32r#24#19 + yf#32r#24#12#13 - Zs#24 <= 0.0
 + yf#32r#46#40#30 - Zs#30 <= 0.0
 + yf#32r#46#40#30 - Zs#40 <= 0.0
 + yf#32r#46#40#30 - Zs#46 <= 0.0
 + yf#33r#28#29 - Zs#28 <= 0.0
 + yf#33r#28#29 - Zs#29 <= 0.0
 + yf#33r#35#42 - Zs#35 <= 0.0
 + yf#33r#37#57#44 - Zs#37 <= 0.0
 + yf#33r#35#42 - Zs#42 <= 0.0
 + yf#33r#37#57#44 - Zs#44 <= 0.0
 + yf#33r#37#57#44 - Zs#57 <= 0.0
 + yf#34r#30#27 - Zs#27 <= 0.0
 + yf#34r#30#27 - Zs#30 <= 0.0
 + yf#34r#41#36 - Zs#36 <= 0.0
 + yf#34r#43#58#38 - Zs#38 <= 0.0
 + yf#34r#41#36 - Zs#41 <= 0.0
 + yf#34r#43#58#38 - Zs#43 <= 0.0
 + yf#34r#43#58#38 - Zs#58 <= 0.0
 + yf#35r#16#17 - Zs#16 <= 0.0
 + yf#35r#16#17 - Zs#17 <= 0.0
 + yf#35r#33#41 - Zs#33 <= 0.0
 + yf#35r#37#54 - Zs#37 <= 0.0
 + yf#35r#33#41 - Zs#41 <= 0.0
 + yf#35r#37#54 - Zs#54 <= 0.0
 + yf#36r#18#15 - Zs#15 <= 0.0
 + yf#36r#18#15 - Zs#18 <= 0.0
 + yf#36r#42#34 - Zs#34 <= 0.0
 + yf#36r#53#38 - Zs#38 <= 0.0
 + yf#36r#42#34 - Zs#42 <= 0.0
 + yf#36r#53#38 - Zs#53 <= 0.0
 + yf#37r#16#11#25 - Zs#11 <= 0.0
 + yf#37r#16#11#25 - Zs#16 <= 0.0
 + yf#37r#16#11#25 - Zs#25 <= 0.0
 + yf#37r#33#43#58 - Zs#33 <= 0.0
 + yf#37r#35#53 - Zs#35 <= 0.0
 + yf#37r#33#43#58 - Zs#43 <= 0.0
 + yf#37r#35#53 - Zs#53 <= 0.0
 + yf#37r#33#43#58 - Zs#58 <= 0.0
 + yf#38r#26#12#15 - Zs#12 <= 0.0
 + yf#38r#26#12#15 - Zs#15 <= 0.0
 + yf#38r#26#12#15 - Zs#26 <= 0.0
 + yf#38r#57#44#34 - Zs#34 <= 0.0
 + yf#38r#54#36 - Zs#36 <= 0.0
 + yf#38r#57#44#34 - Zs#44 <= 0.0
 + yf#38r#54#36 - Zs#54 <= 0.0
 + yf#38r#57#44#34 - Zs#57 <= 0.0
 + yf#39r#30#31#46 - Zs#30 <= 0.0
 + yf#39r#30#31#46 - Zs#31 <= 0.0
 + yf#39r#43#48 + yf#39r#43#61#50 - Zs#43 <= 0.0
 + yf#39r#30#31#46 - Zs#46 <= 0.0
 + yf#39r#43#48 - Zs#48 <= 0.0
 + yf#39r#43#61#50 - Zs#50 <= 0.0
 + yf#39r#43#61#50 - Zs#61 <= 0.0
 + yf#40r#45#32#29 - Zs#29 <= 0.0
 + yf#40r#45#32#29 - Zs#32 <= 0.0
 + yf#40r#47#44 + yf#40r#49#62#44 - Zs#44 <= 0.0
 + yf#40r#45#32#29 - Zs#45 <= 0.0
 + yf#40r#47#44 - Zs#47 <= 0.0
 + yf#40r#49#62#44 - Zs#49 <= 0.0
 + yf#40r#49#62#44 - Zs#62 <= 0.0
 + yf#41r#34#35 - Zs#34 <= 0.0
 + yf#41r#34#35 - Zs#35 <= 0.0
 + yf#41r#43#56 + yf#41r#43#58#54 - Zs#43 <= 0.0
 + yf#41r#43#58#54 - Zs#54 <= 0.0
 + yf#41r#43#56 - Zs#56 <= 0.0
 + yf#41r#43#58#54 - Zs#58 <= 0.0
 + yf#42r#36#33 - Zs#33 <= 0.0
 + yf#42r#36#33 - Zs#36 <= 0.0
 + yf#42r#55#44 + yf#42r#53#57#44 - Zs#44 <= 0.0
 + yf#42r#53#57#44 - Zs#53 <= 0.0
 + yf#42r#55#44 - Zs#55 <= 0.0
 + yf#42r#53#57#44 - Zs#57 <= 0.0
 + yf#43r#39#47 + yf#43r#39#49#62 - Zs#39 <= 0.0
 + yf#43r#41#55 - Zs#41 <= 0.0
 + yf#43r#39#47 - Zs#47 <= 0.0
 + yf#43r#39#49#62 - Zs#49 <= 0.0
 + yf#43r#41#55 - Zs#55 <= 0.0
 + yf#43r#39#49#62 - Zs#62 <= 0.0
 + yf#44r#48#40 + yf#44r#61#50#40 - Zs#40 <= 0.0
 + yf#44r#56#42 - Zs#42 <= 0.0
 + yf#44r#48#40 - Zs#48 <= 0.0
 + yf#44r#61#50#40 - Zs#50 <= 0.0
 + yf#44r#56#42 - Zs#56 <= 0.0
 + yf#44r#61#50#40 - Zs#61 <= 0.0
 + yf#45r#22#23 - Zs#22 <= 0.0
 + yf#45r#22#23 - Zs#23 <= 0.0
 + yf#45r#40#30#31 - Zs#30 <= 0.0
 + yf#45r#40#30#31 - Zs#31 <= 0.0
 + yf#45r#40#30#31 - Zs#40 <= 0.0
 + yf#45r#49#52 - Zs#49 <= 0.0
 + yf#45r#49#52 - Zs#52 <= 0.0
 + yf#46r#24#21 - Zs#21 <= 0.0
 + yf#46r#24#21 - Zs#24 <= 0.0
 + yf#46r#32#29#39 - Zs#29 <= 0.0
 + yf#46r#32#29#39 - Zs#32 <= 0.0
 + yf#46r#32#29#39 - Zs#39 <= 0.0
 + yf#46r#51#50 - Zs#50 <= 0.0
 + yf#46r#51#50 - Zs#51 <= 0.0
 + yf#47r#40#43 - Zs#40 <= 0.0
 + yf#47r#40#43 - Zs#43 <= 0.0
 + yf#47r#49#62 + yf#47r#49#60#57 - Zs#49 <= 0.0
 + yf#47r#49#60#57 - Zs#57 <= 0.0
 + yf#47r#49#60#57 - Zs#60 <= 0.0
 + yf#47r#49#62 - Zs#62 <= 0.0
 + yf#48r#44#39 - Zs#39 <= 0.0
 + yf#48r#44#39 - Zs#44 <= 0.0
 + yf#48r#61#50 + yf#48r#58#59#50 - Zs#50 <= 0.0
 + yf#48r#58#59#50 - Zs#58 <= 0.0
 + yf#48r#58#59#50 - Zs#59 <= 0.0
 + yf#48r#61#50 - Zs#61 <= 0.0
 + yf#49r#45#51 - Zs#45 <= 0.0
 + yf#49r#47#61 + yf#49r#47#58#59 - Zs#47 <= 0.0
 + yf#49r#45#51 - Zs#51 <= 0.0
 + yf#49r#47#58#59 - Zs#58 <= 0.0
 + yf#49r#47#58#59 - Zs#59 <= 0.0
 + yf#49r#47#61 - Zs#61 <= 0.0
 + yf#50r#52#46 - Zs#46 <= 0.0
 + yf#50r#62#48 + yf#50r#60#57#48 - Zs#48 <= 0.0
 + yf#50r#52#46 - Zs#52 <= 0.0
 + yf#50r#60#57#48 - Zs#57 <= 0.0
 + yf#50r#60#57#48 - Zs#60 <= 0.0
 + yf#50r#62#48 - Zs#62 <= 0.0
 + yf#51r#24#25#59 - Zs#24 <= 0.0
 + yf#51r#24#25#59 - Zs#25 <= 0.0
 + yf#51r#46#49 + yf#51r#46#47#61 - Zs#46 <= 0.0
 + yf#51r#46#47#61 - Zs#47 <= 0.0
 + yf#51r#46#49 - Zs#49 <= 0.0
 + yf#51r#24#25#59 - Zs#59 <= 0.0
 + yf#51r#46#47#61 - Zs#61 <= 0.0
 + yf#52r#60#26#23 - Zs#23 <= 0.0
 + yf#52r#60#26#23 - Zs#26 <= 0.0
 + yf#52r#50#45 + yf#52r#62#48#45 - Zs#45 <= 0.0
 + yf#52r#62#48#45 - Zs#48 <= 0.0
 + yf#52r#50#45 - Zs#50 <= 0.0
 + yf#52r#60#26#23 - Zs#60 <= 0.0
 + yf#52r#62#48#45 - Zs#62 <= 0.0
 + yf#53r#36#37 - Zs#36 <= 0.0
 + yf#53r#36#37 - Zs#37 <= 0.0
 + yf#53r#42#43#58 - Zs#42 <= 0.0
 + yf#53r#42#43#58 - Zs#43 <= 0.0
 + yf#53r#55#58 - Zs#55 <= 0.0
 + yf#53r#55#58 + yf#53r#42#43#58 - Zs#58 <= 0.0
 + yf#54r#38#35 - Zs#35 <= 0.0
 + yf#54r#38#35 - Zs#38 <= 0.0
 + yf#54r#57#44#41 - Zs#41 <= 0.0
 + yf#54r#57#44#41 - Zs#44 <= 0.0
 + yf#54r#57#56 - Zs#56 <= 0.0
 + yf#54r#57#56 + yf#54r#57#44#41 - Zs#57 <= 0.0
 + yf#55r#36#37#57 - Zs#36 <= 0.0
 + yf#55r#36#37#57 - Zs#37 <= 0.0
 + yf#55r#42#43 - Zs#42 <= 0.0
 + yf#55r#42#43 - Zs#43 <= 0.0
 + yf#55r#53#57 - Zs#53 <= 0.0
 + yf#55r#53#57 + yf#55r#36#37#57 - Zs#57 <= 0.0
 + yf#56r#58#38#35 - Zs#35 <= 0.0
 + yf#56r#58#38#35 - Zs#38 <= 0.0
 + yf#56r#44#41 - Zs#41 <= 0.0
 + yf#56r#44#41 - Zs#44 <= 0.0
 + yf#56r#58#54 - Zs#54 <= 0.0
 + yf#56r#58#54 + yf#56r#58#38#35 - Zs#58 <= 0.0
 + yf#57r#59#50#47 - Zs#47 <= 0.0
 + yf#57r#59#50#47 - Zs#50 <= 0.0
 + yf#57r#54#55 - Zs#54 <= 0.0
 + yf#57r#54#55 - Zs#55 <= 0.0
 + yf#57r#59#62 + yf#57r#59#50#47 - Zs#59 <= 0.0
 + yf#57r#59#62 - Zs#62 <= 0.0
 + yf#58r#48#49#60 - Zs#48 <= 0.0
 + yf#58r#48#49#60 - Zs#49 <= 0.0
 + yf#58r#56#53 - Zs#53 <= 0.0
 + yf#58r#56#53 - Zs#56 <= 0.0
 + yf#58r#61#60 + yf#58r#48#49#60 - Zs#60 <= 0.0
 + yf#58r#61#60 - Zs#61 <= 0.0
 + yf#59r#26#21#49 - Zs#21 <= 0.0
 + yf#59r#26#21#49 - Zs#26 <= 0.0
 + yf#59r#57#48#49 - Zs#48 <= 0.0
 + yf#59r#57#48#49 + yf#59r#26#21#49 - Zs#49 <= 0.0
 + yf#59r#57#61 + yf#59r#57#48#49 - Zs#57 <= 0.0
 + yf#59r#57#61 - Zs#61 <= 0.0
 + yf#60r#50#22#25 - Zs#22 <= 0.0
 + yf#60r#50#22#25 - Zs#25 <= 0.0
 + yf#60r#50#47#58 - Zs#47 <= 0.0
 + yf#60r#50#47#58 + yf#60r#50#22#25 - Zs#50 <= 0.0
 + yf#60r#62#58 + yf#60r#50#47#58 - Zs#58 <= 0.0
 + yf#60r#62#58 - Zs#62 <= 0.0
 + yf#61r#44#39#49 - Zs#39 <= 0.0
 + yf#61r#44#39#49 - Zs#44 <= 0.0
 + yf#61r#48#49 - Zs#48 <= 0.0
 + yf#61r#48#49 + yf#61r#44#39#49 - Zs#49 <= 0.0
 + yf#61r#58#59 - Zs#58 <= 0.0
 + yf#61r#58#59 - Zs#59 <= 0.0
 + yf#62r#50#40#43 - Zs#40 <= 0.0
 + yf#62r#50#40#43 - Zs#43 <= 0.0
 + yf#62r#50#47 - Zs#47 <= 0.0
 + yf#62r#50#47 + yf#62r#50#40#43 - Zs#50 <= 0.0
 + yf#62r#60#57 - Zs#57 <= 0.0
 + yf#62r#60#57 - Zs#60 <= 0.0
Bounds
 Zs#11>= 0 
 Zs#12>= 0 
 Zs#13>= 0 
 Zs#14>= 0 
 Zs#15>= 0 
 Zs#16>= 0 
 Zs#17>= 0 
 Zs#18>= 0 
 Zs#19>= 0 
 Zs#20>= 0 
 Zs#21>= 0 
 Zs#22>= 0 
 Zs#23>= 0 
 Zs#24>= 0 
 Zs#25>= 0 
 Zs#26>= 0 
 Zs#27>= 0 
 Zs#28>= 0 
 Zs#29>= 0 
 Zs#30>= 0 
 Zs#31>= 0 
 Zs#32>= 0 
 Zs#33>= 0 
 Zs#34>= 0 
 Zs#35>= 0 
 Zs#36>= 0 
 Zs#37>= 0 
 Zs#38>= 0 
 Zs#39>= 0 
 Zs#40>= 0 
 Zs#41>= 0 
 Zs#42>= 0 
 Zs#43>= 0 
 Zs#44>= 0 
 Zs#45>= 0 
 Zs#46>= 0 
 Zs#47>= 0 
 Zs#48>= 0 
 Zs#49>= 0 
 Zs#50>= 0 
 Zs#51>= 0 
 Zs#52>= 0 
 Zs#53>= 0 
 Zs#54>= 0 
 Zs#55>= 0 
 Zs#56>= 0 
 Zs#57>= 0 
 Zs#58>= 0 
 Zs#59>= 0 
 Zs#60>= 0 
 Zs#61>= 0 
 Zs#62>= 0 
 Xvl#66sp#22 >= 0 
 Xvl#66sp#45#24 >= 0 
 Xvl#66sp#47#58#26 >= 0 
 Xvl#67sp#21 >= 0 
 Xvl#67sp#23#46 >= 0 
 Xvl#67sp#25#57#48 >= 0 
 Xvl#68sp#40#30 >= 0 
 Xvl#68sp#45#32 >= 0 
 Xvl#68sp#22#19 >= 0 
 Xvl#69sp#29#39 >= 0 
 Xvl#69sp#31#46 >= 0 
 Xvl#69sp#20#21 >= 0 
 yf#11r#13#20 >= 0 
 yf#11r#15#37#26 >= 0 
 yf#11r#15#28#20 >= 0 
 yf#12r#19#14 >= 0 
 yf#12r#25#38#16 >= 0 
 yf#12r#19#27#16 >= 0 
 yf#13r#11#19 >= 0 
 yf#13r#15#28 >= 0 
 yf#13r#15#33#30 >= 0 
 yf#14r#20#12 >= 0 
 yf#14r#27#16 >= 0 
 yf#14r#29#34#16 >= 0 
 yf#15r#13#27 >= 0 
 yf#15r#17#36 >= 0 
 yf#15r#11#25#38 >= 0 
 yf#16r#28#14 >= 0 
 yf#16r#35#18 >= 0 
 yf#16r#37#26#12 >= 0 
 yf#17r#15#35 >= 0 
 yf#17r#15#37#54 >= 0 
 yf#17r#13#29#41 >= 0 
 yf#18r#36#16 >= 0 
 yf#18r#53#38#16 >= 0 
 yf#18r#42#30#14 >= 0 
 yf#19r#23#32 >= 0 
 yf#19r#12#13 >= 0 
 yf#19r#12#15#28 >= 0 
 yf#20r#31#24 >= 0 
 yf#20r#14#11 >= 0 
 yf#20r#27#16#11 >= 0 
 yf#21r#23#46 >= 0 
 yf#21r#25#57#48 >= 0 
 yf#21r#19#29#39 >= 0 
 yf#22r#45#24 >= 0 
 yf#22r#47#58#26 >= 0 
 yf#22r#40#30#20 >= 0 
 yf#23r#19#31 >= 0 
 yf#23r#21#45 >= 0 
 yf#23r#12#13#31 >= 0 
 yf#24r#32#20 >= 0 
 yf#24r#46#22 >= 0 
 yf#24r#32#14#11 >= 0 
 yf#25r#12#15#37 >= 0 
 yf#25r#19#27#37 >= 0 
 yf#25r#21#47#58 >= 0 
 yf#26r#38#16#11 >= 0 
 yf#26r#38#28#20 >= 0 
 yf#26r#57#48#22 >= 0 
 yf#27r#14#15 >= 0 
 yf#27r#29#34 >= 0 
 yf#27r#20#12#15 >= 0 
 yf#28r#16#13 >= 0 
 yf#28r#33#30 >= 0 
 yf#28r#16#11#19 >= 0 
 yf#29r#27#33 >= 0 
 yf#29r#31#46#40 >= 0 
 yf#29r#14#15#33 >= 0 
 yf#30r#34#28 >= 0 
 yf#30r#39#45#32 >= 0 
 yf#30r#34#16#13 >= 0 
 yf#31r#20#23 >= 0 
 yf#31r#29#39#45 >= 0 
 yf#31r#14#11#23 >= 0 
 yf#32r#24#19 >= 0 
 yf#32r#46#40#30 >= 0 
 yf#32r#24#12#13 >= 0 
 yf#33r#28#29 >= 0 
 yf#33r#35#42 >= 0 
 yf#33r#37#57#44 >= 0 
 yf#34r#30#27 >= 0 
 yf#34r#41#36 >= 0 
 yf#34r#43#58#38 >= 0 
 yf#35r#37#54 >= 0 
 yf#35r#16#17 >= 0 
 yf#35r#33#41 >= 0 
 yf#36r#53#38 >= 0 
 yf#36r#18#15 >= 0 
 yf#36r#42#34 >= 0 
 yf#37r#35#53 >= 0 
 yf#37r#16#11#25 >= 0 
 yf#37r#33#43#58 >= 0 
 yf#38r#54#36 >= 0 
 yf#38r#26#12#15 >= 0 
 yf#38r#57#44#34 >= 0 
 yf#39r#43#48 >= 0 
 yf#39r#43#61#50 >= 0 
 yf#39r#30#31#46 >= 0 
 yf#40r#47#44 >= 0 
 yf#40r#49#62#44 >= 0 
 yf#40r#45#32#29 >= 0 
 yf#41r#43#56 >= 0 
 yf#41r#34#35 >= 0 
 yf#41r#43#58#54 >= 0 
 yf#42r#55#44 >= 0 
 yf#42r#36#33 >= 0 
 yf#42r#53#57#44 >= 0 
 yf#43r#39#47 >= 0 
 yf#43r#41#55 >= 0 
 yf#43r#39#49#62 >= 0 
 yf#44r#48#40 >= 0 
 yf#44r#56#42 >= 0 
 yf#44r#61#50#40 >= 0 
 yf#45r#49#52 >= 0 
 yf#45r#22#23 >= 0 
 yf#45r#40#30#31 >= 0 
 yf#46r#51#50 >= 0 
 yf#46r#24#21 >= 0 
 yf#46r#32#29#39 >= 0 
 yf#47r#49#62 >= 0 
 yf#47r#40#43 >= 0 
 yf#47r#49#60#57 >= 0 
 yf#48r#61#50 >= 0 
 yf#48r#44#39 >= 0 
 yf#48r#58#59#50 >= 0 
 yf#49r#47#61 >= 0 
 yf#49r#45#51 >= 0 
 yf#49r#47#58#59 >= 0 
 yf#50r#62#48 >= 0 
 yf#50r#52#46 >= 0 
 yf#50r#60#57#48 >= 0 
 yf#51r#46#49 >= 0 
 yf#51r#46#47#61 >= 0 
 yf#51r#24#25#59 >= 0 
 yf#52r#50#45 >= 0 
 yf#52r#62#48#45 >= 0 
 yf#52r#60#26#23 >= 0 
 yf#53r#36#37 >= 0 
 yf#53r#55#58 >= 0 
 yf#53r#42#43#58 >= 0 
 yf#54r#38#35 >= 0 
 yf#54r#57#56 >= 0 
 yf#54r#57#44#41 >= 0 
 yf#55r#53#57 >= 0 
 yf#55r#42#43 >= 0 
 yf#55r#36#37#57 >= 0 
 yf#56r#58#54 >= 0 
 yf#56r#44#41 >= 0 
 yf#56r#58#38#35 >= 0 
 yf#57r#59#62 >= 0 
 yf#57r#54#55 >= 0 
 yf#57r#59#50#47 >= 0 
 yf#58r#61#60 >= 0 
 yf#58r#56#53 >= 0 
 yf#58r#48#49#60 >= 0 
 yf#59r#57#61 >= 0 
 yf#59r#57#48#49 >= 0 
 yf#59r#26#21#49 >= 0 
 yf#60r#62#58 >= 0 
 yf#60r#50#47#58 >= 0 
 yf#60r#50#22#25 >= 0 
 yf#61r#48#49 >= 0 
 yf#61r#58#59 >= 0 
 yf#61r#44#39#49 >= 0 
 yf#62r#50#47 >= 0 
 yf#62r#60#57 >= 0 
 yf#62r#50#40#43 >= 0 
General
END